\ Model Routes
\ LP format - for model browsing. Use MPS format to capture full model detail.
Maximize
  - 191.7153353028244 R{0,0} + 623.2046552982704 R{0,1}
   + 623.2046552982704 R{0,2} - 249.2301939667805 R{0,3}
   - 17.2186063228686 R{0,4} + 1085.481438609255 R{0,5}
   + 1085.481438609255 R{0,6} + 1029.943244018977 R{0,7}
   + 1452.293809839529 R{0,8} + 695.6498560291323 R{0,9}
   + 426.0462613747952 R{0,10} + 621.9529987812656 R{0,11}
   - 256.140831891889 R{1,0} + 336.2990336595462 R{1,1}
   + 1133.553539856711 R{1,2} + 1432.486019617995 R{1,3}
   + 971.517809958817 R{1,4} + 1130.551248046154 R{1,5}
   + 971.517809958817 R{1,6} + 430.8443140618604 R{1,7}
   + 1218.739592921208 R{1,8} + 812.8619292710513 R{1,9}
   + 514.4663941934409 R{1,10} + 966.4962483187182 R{2,0}
   + 966.4962483187182 R{2,1} - 278.4443928850388 R{2,2}
   - 59.13410337035452 R{2,3} + 602.7748664658451 R{2,4}
   + 1100.505917706273 R{2,5} + 380.2424307492583 R{2,6}
   + 832.465065802254 R{2,7} + 838.1281267964846 R{2,8}
   + 473.9263938819845 R{2,9} + 404.6792211845463 R{2,10}
   + 313.4368696722909 R{2,11} + 1127.126554447374 R{2,12}
   - 260.2482995389823 R{3,0} + 507.2449935460145 R{3,1}
   + 886.6055046369149 R{3,2} + 596.1945398323494 R{3,3}
   + 604.9448356141506 R{3,4} + 562.6027105715502 R{3,5}
   + 604.9448356141506 R{3,6} + 521.2561681094396 R{3,7}
   + 585.2619033137057 R{3,8} - 242.5208875955131 R{4,0}
   + 1066.379443184683 R{4,1} + 1576.196574514046 R{4,2}
   + 1066.812638585514 R{4,3} + 1948.139305753423 R{4,4}
   + 1226.878186594534 R{4,5} + 1606.634240228012 R{4,6}
   + 1163.512136531434 R{4,7} + 1675.135826995157 R{4,8}
   + 1438.32217442406 R{4,9} + 1664.30960966242 R{4,10}
   - 231.9775664337766 R{5,0} + 251.2011413408645 R{5,1}
   + 835.6653627301428 R{5,2} + 1078.983779079718 R{5,3}
   + 503.450797973627 R{5,4} + 667.8824784272645 R{5,5}
   + 1012.209311732938 R{5,6} + 404.1308111873009 R{5,7}
   + 697.4793234697629 R{5,8} + 1012.209311732938 R{5,9}
   + 1081.002941831072 R{5,10} - 231.1436095783099 R{6,0}
   + 922.3827094322514 R{6,1} + 1755.640382897198 R{6,2}
   + 2100.238740052186 R{6,3} + 1588.355624180421 R{6,4}
   + 1206.836603108715 R{6,5} + 769.576702257724 R{6,6}
   + 338.9768933903462 R{6,7} + 800.1611919487724 R{6,8}
   + 1042.076486336104 R{6,9} + 703.1019502892286 R{6,10}
   + 1195.280958307707 R{6,11} + 1216.338019664091 R{6,12}
Subject To
 R00: R{0,0} <= 1
 R01: R{0,1} <= 1
 R02: R{0,2} <= 1
 R03: R{0,3} <= 1
 R04: R{0,4} <= 1
 R05: R{0,5} <= 1
 R06: R{0,6} <= 1
 R07: R{0,7} <= 1
 R08: R{0,8} <= 1
 R09: R{0,9} <= 1
 R010: R{0,10} <= 1
 R011: R{0,11} <= 1
 R012: R{1,0} <= 1
 R013: R{1,1} <= 1
 R014: R{1,2} <= 1
 R015: R{1,3} <= 1
 R016: R{1,4} <= 1
 R017: R{1,5} <= 1
 R018: R{1,6} <= 1
 R019: R{1,7} <= 1
 R020: R{1,8} <= 1
 R021: R{1,9} <= 1
 R022: R{1,10} <= 1
 R023: R{2,0} <= 1
 R024: R{2,1} <= 1
 R025: R{2,2} <= 1
 R026: R{2,3} <= 1
 R027: R{2,4} <= 1
 R028: R{2,5} <= 1
 R029: R{2,6} <= 1
 R030: R{2,7} <= 1
 R031: R{2,8} <= 1
 R032: R{2,9} <= 1
 R033: R{2,10} <= 1
 R034: R{2,11} <= 1
 R035: R{2,12} <= 1
 R036: R{3,0} <= 1
 R037: R{3,1} <= 1
 R038: R{3,2} <= 1
 R039: R{3,3} <= 1
 R040: R{3,4} <= 1
 R041: R{3,5} <= 1
 R042: R{3,6} <= 1
 R043: R{3,7} <= 1
 R044: R{3,8} <= 1
 R045: R{4,0} <= 1
 R046: R{4,1} <= 1
 R047: R{4,2} <= 1
 R048: R{4,3} <= 1
 R049: R{4,4} <= 1
 R050: R{4,5} <= 1
 R051: R{4,6} <= 1
 R052: R{4,7} <= 1
 R053: R{4,8} <= 1
 R054: R{4,9} <= 1
 R055: R{4,10} <= 1
 R056: R{5,0} <= 1
 R057: R{5,1} <= 1
 R058: R{5,2} <= 1
 R059: R{5,3} <= 1
 R060: R{5,4} <= 1
 R061: R{5,5} <= 1
 R062: R{5,6} <= 1
 R063: R{5,7} <= 1
 R064: R{5,8} <= 1
 R065: R{5,9} <= 1
 R066: R{5,10} <= 1
 R067: R{6,0} <= 1
 R068: R{6,1} <= 1
 R069: R{6,2} <= 1
 R070: R{6,3} <= 1
 R071: R{6,4} <= 1
 R072: R{6,5} <= 1
 R073: R{6,6} <= 1
 R074: R{6,7} <= 1
 R075: R{6,8} <= 1
 R076: R{6,9} <= 1
 R077: R{6,10} <= 1
 R078: R{6,11} <= 1
 R079: R{6,12} <= 1
 R1_0: R{0,0} + R{0,1} + R{0,2} + R{0,3} + R{0,4} + R{0,5} + R{0,6}
   + R{0,7} + R{0,8} + R{0,9} + R{0,10} + R{0,11} <= 1
 R1_1: R{1,0} + R{1,1} + R{1,2} + R{1,3} + R{1,4} + R{1,5} + R{1,6}
   + R{1,7} + R{1,8} + R{1,9} + R{1,10} <= 1
 R1_2: R{2,0} + R{2,1} + R{2,2} + R{2,3} + R{2,4} + R{2,5} + R{2,6}
   + R{2,7} + R{2,8} + R{2,9} + R{2,10} + R{2,11} + R{2,12} <= 1
 R1_3: R{3,0} + R{3,1} + R{3,2} + R{3,3} + R{3,4} + R{3,5} + R{3,6}
   + R{3,7} + R{3,8} <= 1
 R1_4: R{4,0} + R{4,1} + R{4,2} + R{4,3} + R{4,4} + R{4,5} + R{4,6}
   + R{4,7} + R{4,8} + R{4,9} + R{4,10} <= 1
 R1_5: R{5,0} + R{5,1} + R{5,2} + R{5,3} + R{5,4} + R{5,5} + R{5,6}
   + R{5,7} + R{5,8} + R{5,9} + R{5,10} <= 1
 R1_6: R{6,0} + R{6,1} + R{6,2} + R{6,3} + R{6,4} + R{6,5} + R{6,6}
   + R{6,7} + R{6,8} + R{6,9} + R{6,10} + R{6,11} + R{6,12} <= 1
 R2_0: <= 0
 R2_1: 10 R{0,7} + 10 R{0,8} + 10 R{0,11} + 10 R{1,1} + 10 R{1,2}
   + 10 R{1,3} + 10 R{1,5} + 10 R{1,8} + 10 R{5,7} <= 10
 R2_2: <= 0
 R2_3: 4 R{1,1} + 4 R{1,2} + 4 R{1,3} + 4 R{1,4} + 4 R{1,5} + 4 R{1,6}
   + 4 R{1,7} <= 4
 R2_4: <= 0
 R2_5: 5 R{0,4} + 5 R{0,5} + 5 R{0,6} <= 5
 R2_6: 10 R{0,9} + 10 R{0,11} + 10 R{3,1} + 10 R{3,2} + 10 R{3,7}
   + 10 R{5,3} + 10 R{5,6} + 10 R{5,8} + 10 R{5,9} <= 10
 R2_7: 6 R{1,1} + 6 R{1,2} + 6 R{1,3} <= 6
 R2_8: <= 0
 R2_9: 12 R{4,1} + 12 R{4,2} + 12 R{4,3} + 12 R{4,4} + 12 R{4,5}
   + 12 R{4,9} <= 12
 R2_10: 8 R{6,1} + 8 R{6,2} + 8 R{6,4} + 8 R{6,5} + 8 R{6,6} + 8 R{6,7}
   + 8 R{6,8} + 8 R{6,10} + 8 R{6,11} + 8 R{6,12} <= 8
 R2_11: <= 0
 R2_12: <= 0
 R2_13: <= 0
 R2_14: <= 0
 R2_15: 11 R{0,0} + 11 R{0,1} + 11 R{0,2} + 11 R{4,1} + 11 R{4,2} <= 11
 R2_16: <= 0
 R2_17: <= 0
 R2_18: <= 0
 R2_19: 11 R{1,2} + 11 R{1,3} + 11 R{1,4} + 11 R{1,6} + 11 R{3,3}
   + 11 R{3,4} + 11 R{3,6} + 11 R{4,1} + 11 R{4,2} + 11 R{4,4} + 11 R{4,6}
   + 11 R{4,8} + 11 R{4,9} + 11 R{4,10} + 11 R{5,4} + 11 R{6,4} <= 11
 R2_20: 13 R{2,5} + 13 R{2,12} + 13 R{3,8} + 13 R{5,10} + 13 R{6,1}
   + 13 R{6,2} + 13 R{6,3} + 13 R{6,5} <= 13
 R2_21: <= 0
 R2_22: <= 0
 R2_23: 14 R{0,1} + 14 R{0,2} + 14 R{2,0} + 14 R{2,1} + 14 R{2,7}
   + 14 R{6,2} + 14 R{6,3} + 14 R{6,4} + 14 R{6,5} + 14 R{6,6} + 14 R{6,11}
   + 14 R{6,12} <= 14
 R2_24: 10 R{1,7} + 10 R{3,1} + 10 R{3,2} + 10 R{3,3} + 10 R{3,5}
   + 10 R{3,7} <= 10
 R2_25: 13 R{1,10} + 13 R{4,1} + 13 R{4,2} + 13 R{4,3} + 13 R{4,4}
   + 13 R{4,5} + 13 R{4,6} + 13 R{4,8} + 13 R{4,9} + 13 R{4,10} <= 13
 R2_26: 6 R{5,1} + 6 R{5,2} + 6 R{5,3} + 6 R{5,4} + 6 R{5,5} + 6 R{5,7}
   + 6 R{5,10} <= 6
 R2_27: 5 R{0,5} + 5 R{0,6} + 5 R{0,8} + 5 R{1,4} + 5 R{1,6} + 5 R{1,8}
   + 5 R{1,9} + 5 R{3,4} + 5 R{3,6} + 5 R{3,8} + 5 R{4,6} + 5 R{4,8}
   + 5 R{4,10} + 5 R{6,1} + 5 R{6,2} + 5 R{6,3} + 5 R{6,4} + 5 R{6,8}
   + 5 R{6,11} <= 5
 R2_28: <= 0
 R2_29: <= 0
 R2_30: <= 0
 R2_31: <= 0
 R2_32: 7 R{5,1} + 7 R{5,2} + 7 R{5,3} + 7 R{5,4} + 7 R{5,7} <= 7
 R2_33: <= 0
 R2_34: 5 R{1,3} + 5 R{1,4} + 5 R{1,5} + 5 R{1,6} + 5 R{1,7} + 5 R{1,8}
   + 5 R{1,9} + 5 R{1,10} <= 5
 R2_35: <= 0
 R2_36: <= 0
 R2_37: 5 R{3,1} + 5 R{3,2} + 5 R{3,3} + 5 R{3,4} + 5 R{3,5} + 5 R{3,6}
   + 5 R{3,7} <= 5
 R2_38: <= 0
 R2_39: <= 0
 R2_40: 15 R{2,3} + 15 R{2,4} + 15 R{2,5} + 15 R{2,12} <= 15
 R2_41: 5 R{1,2} + 5 R{1,3} + 5 R{1,5} + 5 R{1,8} + 5 R{2,8} + 5 R{2,10}
   + 5 R{3,2} + 5 R{4,5} + 5 R{4,7} + 5 R{4,10} + 5 R{6,5} + 5 R{6,6}
   + 5 R{6,7} + 5 R{6,8} + 5 R{6,9} + 5 R{6,12} <= 5
 R2_42: 4 R{2,3} + 4 R{2,4} + 4 R{2,5} + 4 R{2,12} <= 4
 R2_43: <= 0
 R2_44: <= 0
 R2_45: <= 0
 R2_46: 9 R{4,3} + 9 R{4,4} + 9 R{4,5} + 9 R{4,7} + 9 R{4,8} + 9 R{4,9}
   <= 9
 R2_47: 7 R{5,1} + 7 R{5,2} + 7 R{5,5} <= 7
 R2_48: 4 R{4,1} + 4 R{4,2} + 4 R{4,3} + 4 R{4,4} + 4 R{4,5} + 4 R{4,6}
   + 4 R{4,7} + 4 R{4,9} + 4 R{4,10} <= 4
 R2_49: <= 0
 R2_50: <= 0
 R2_51: 11 R{4,1} + 11 R{4,3} + 11 R{4,9} <= 11
 R2_52: <= 0
 R2_53: 13 R{4,1} + 13 R{4,2} + 13 R{4,3} + 13 R{4,4} + 13 R{4,9} <= 13
 R2_54: 9 R{3,1} + 9 R{3,2} + 9 R{3,3} + 9 R{3,5} + 9 R{3,7} <= 9
 R2_55: 8 R{6,1} + 8 R{6,2} + 8 R{6,3} + 8 R{6,4} + 8 R{6,10} + 8 R{6,11}
   <= 8
 R2_56: 6 R{2,0} + 6 R{2,1} + 6 R{2,6} + 6 R{2,8} + 6 R{2,9} + 6 R{4,6}
   + 6 R{4,8} + 6 R{6,2} + 6 R{6,3} + 6 R{6,4} + 6 R{6,10} + 6 R{6,12}
   <= 6
 R2_57: <= 0
 R2_58: <= 0
 R2_59: 10 R{1,9} + 10 R{1,10} + 10 R{2,10} + 10 R{6,10} + 10 R{6,11}
   <= 10
 R2_60: <= 0
 R2_61: 9 R{2,6} + 9 R{2,7} + 9 R{2,11} + 9 R{4,6} + 9 R{4,7} + 9 R{4,8}
   + 9 R{4,10} <= 9
 R2_62: <= 0
 R2_63: <= 0
 R2_64: <= 0
 R2_65: <= 5
 R2_66: <= 7
 R2_67: 3 R{0,1} + 3 R{0,2} + 3 R{2,0} + 3 R{2,1} + 3 R{2,7} + 3 R{2,8}
   + 3 R{2,9} + 3 R{2,11} + 3 R{6,3} <= 3
 R2_68: 6 R{1,1} + 6 R{1,2} + 6 R{1,3} + 6 R{1,4} + 6 R{1,5} + 6 R{1,6}
   + 6 R{1,7} + 6 R{1,8} + 6 R{1,9} <= 6
 R2_69: 7 R{1,5} + 7 R{4,1} + 7 R{4,2} + 7 R{4,3} + 7 R{4,4} + 7 R{4,5}
   + 7 R{4,7} + 7 R{4,9} <= 7
 R2_70: 11 R{1,1} + 11 R{1,2} <= 11
 R2_71: 7 R{6,1} + 7 R{6,2} + 7 R{6,3} + 7 R{6,4} + 7 R{6,5} + 7 R{6,6}
   + 7 R{6,7} + 7 R{6,8} + 7 R{6,9} + 7 R{6,10} + 7 R{6,11} + 7 R{6,12}
   <= 7
 R2_72: <= 0
 R2_73: 11 R{4,6} + 11 R{4,10} <= 11
 R2_74: 5 R{5,1} <= 5
 R2_75: 8 R{6,1} + 8 R{6,2} + 8 R{6,3} + 8 R{6,5} + 8 R{6,6} + 8 R{6,7}
   + 8 R{6,8} + 8 R{6,9} + 8 R{6,12} <= 8
 R2_76: 12 R{0,4} + 12 R{0,5} + 12 R{0,6} + 12 R{0,7} + 12 R{0,8}
   + 12 R{0,11} + 12 R{3,5} + 12 R{5,6} + 12 R{5,9} <= 12
 R2_77: 7 R{0,5} + 7 R{0,6} + 7 R{0,7} + 7 R{0,8} + 7 R{0,9} + 7 R{0,10}
   + 7 R{2,4} + 7 R{2,5} + 7 R{2,12} + 7 R{4,2} + 7 R{4,4} + 7 R{5,2}
   + 7 R{5,3} + 7 R{5,5} + 7 R{5,6} + 7 R{5,8} + 7 R{5,9} + 7 R{5,10}
   + 7 R{6,9} <= 7
Bounds
End
